row=10;
column=10;
Board=[|4,3,3,3,2,2,2,8,7,8|2,5,3,3,5,5,4,4,4,3|3,2,2,2,6,5,6,8,6,5|3,2,2,2,5,7,6,5,7,5|3,2,2,2,8,4,7,5,4,8|8,4,5,5,1,1,1,4,4,5|8,7,6,5,1,1,1,3,3,3|7,6,6,5,3,3,3,1,1,1|2,4,7,8,5,4,4,1,1,1|2,6,6,7,4,4,4,1,1,1|];
right = [26,5,17,19,8,9,0,0,0,0];
bottom = [12,4,8,0,21,2,13,0,11,13];
